p tw 25 75
0 1
0 10
0 4
0 17
0 12
1 16
1 6
1 2
1 15
1 7
2 3
2 9
2 23
2 6
2 8
3 18
3 22
4 5
4 8
4 16
4 15
4 13
4 21
4 6
4 7
5 12
5 9
5 6
5 24
6 7
6 11
6 14
6 8
6 12
6 21
6 23
6 18
6 15
7 20
7 16
7 9
8 15
8 13
8 20
8 23
8 21
8 11
8 19
8 9
9 15
9 19
9 22
10 13
10 15
10 12
10 20
10 24
11 12
11 21
11 17
11 18
12 14
12 15
12 23
12 20
14 20
14 18
15 17
16 17
17 19
17 20
18 19
18 20
20 24
21 22
